NAME : LPS-n30-m336
COMMENT : (Lartu-Peter-Santi Plot, instance 11136 out of 39200. 30 customers.)
TYPE : CVRP
DIMENSION : 30
EDGE_WEIGHT_TYPE : EUC_2D
CAPACITY : 146
NODE_COORD_SECTION
 1 62 81
 2 59 21
 3 61 25
 4 88 17
 5 73 91
 6 2 14
 7 76 75
 8 5 90
 9 90 88
 10 6 10
 11 53 64
 12 70 7
 13 22 30
 14 41 15
 15 38 77
 16 89 0
 17 85 28
 18 9 9
 19 68 98
 20 32 32
 21 54 33
 22 44 2
 23 23 59
 24 91 2
 25 19 72
 26 47 86
 27 81 36
 28 66 4
 29 72 92
 30 71 44
DEMAND_SECTION
1 0
2 39
3 128
4 70
5 125
6 15
7 11
8 139
9 51
10 77
11 140
12 60
13 97
14 33
15 102
16 41
17 37
18 48
19 146
20 97
21 123
22 83
23 102
24 60
25 36
26 39
27 68
28 126
29 26
30 18
DEPOT_SECTION
 1
 -1
EOF
